NAME : ./TSPLIB/ft70.tsp.optbc.tour
TYPE : TOUR
DIMENSION : 70
TOUR_SECTION
5
3
24
27
7
1
2
61
60
58
45
50
36
37
43
42
41
39
40
38
70
66
69
68
64
67
65
49
44
35
33
30
22
25
57
54
21
18
17
16
29
55
53
56
52
51
19
20
48
34
32
31
47
46
63
62
59
28
23
26
14
13
15
11
10
12
9
8
4
6
-1